
maxTime = 336;
%  timeLabels =  ["2017-12-04 00:00:00","2017-12-04 00:30:00","2017-12-04 01:00:00","2017-12-04 01:30:00","2017-12-04 02:00:00","2017-12-04 02:30:00"];

%  minNeeded = array2d(real_blocks, TIME, [ 
%     1,0,0,0,1,0,
%     1,0,0,0,1,0,
%     0,0,0,0,0,0,
%     1,0,0,0,0,0,
%     1,0,0,0,0,0,
%     1,0,0,0,0,0,
%         ]);   

%minNeeded = array2d(BLOCK_BY_COURSE, TIME, [ 10 | b in BLOCK_BY_COURSE, h in TIME]);
minNeeded = array2d(real_blocks, TIME, [ 
% 1,1,1,1,1,1,1,1,1,1,1,1,1,1,1,1,1,1,1,1,1,1,1,1,1,1,1,1,1,1,1,1,1,1,1,1,1,1,1,1,1,1,1,1,1,1,1,1,1,1,1,1,1,1,1,1,1,1,1,1,1,1,1,1,1,1,1,1,1,1,1,1,1,1,1,1,1,1,1,1,1,1,1,1,1,1,1,1,1,1,1,1,1,1,1,1,1,1,1,1,1,1,1,1,1,1,1,1,1,1,1,1,1,1,1,1,1,1,1,1,1,1,1,1,1,1,1,1,1,1,1,1,1,1,1,1,1,1,1,1,1,1,1,1,1,1,1,1,1,1,1,1,1,1,1,1,1,1,1,1,1,1,1,1,1,1,1,1,1,1,1,1,1,1,1,1,1,1,1,1,1,1,1,1,1,1,1,1,1,1,1,1,1,1,1,1,1,1,1,1,1,1,1,1,1,1,1,1,1,1,1,1,1,1,1,1,1,1,1,1,1,1,1,1,1,1,1,1,1,1,1,1,1,1,1,1,1,1,1,1,1,1,1,1,1,1,1,1,1,1,1,1,1,1,1,1,1,1,1,1,1,1,1,1,1,1,1,1,1,1,1,1,1,1,1,1,1,1,1,1,1,1,1,1,1,1,1,1,1,1,1,1,1,1,1,1,1,1,1,1,1,1,1,1,1,1,1,1,1,1,1,1,1,1,1,1,1,1,1,1,1,1,1,1,1,1,1,1,1,1,1,1,1,1,1,1,
% 0,0,0,0,0,0,0,0,0,0,0,0,0,0,0,0,0,0,0,0,0,0,0,0,0,0,0,0,0,0,0,0,0,0,0,0,0,0,0,0,0,0,0,0,0,0,0,0,0,0,0,0,0,0,0,0,0,0,0,0,0,0,0,0,0,0,0,0,0,0,0,0,0,0,0,0,0,0,0,0,0,0,0,0,0,0,0,0,0,0,0,0,0,0,0,0,0,0,0,0,0,0,0,0,0,0,0,0,0,0,0,0,0,0,0,0,0,0,0,0,0,0,0,0,0,0,0,0,0,0,0,0,0,0,0,0,0,0,0,0,0,0,0,0,0,0,0,0,0,0,0,0,0,0,0,0,0,0,0,0,0,0,0,0,0,0,0,0,0,0,0,0,0,0,0,0,0,0,0,0,0,0,0,0,0,0,0,0,0,0,0,0,0,0,0,0,0,0,0,0,0,0,0,0,0,0,0,0,0,0,0,0,0,0,0,0,0,0,0,0,0,0,0,0,0,0,0,0,0,0,0,0,0,0,0,0,0,0,0,0,0,0,0,0,0,0,0,0,0,0,0,0,0,0,0,0,0,0,0,0,0,0,0,0,0,0,0,0,0,0,0,0,0,0,0,0,0,0,0,0,0,0,0,0,0,0,0,0,0,0,0,0,0,0,0,0,0,0,0,0,0,0,0,0,0,0,0,0,0,0,0,0,0,0,0,0,0,0,0,0,0,0,0,0,0,0,0,0,0,0,0,0,0,0,0,0,

% 0,0,0,0,0,0,0,0,0,0,0,0,0,0,0,0,0,0,0,0,0,0,0,0,0,0,0,0,0,0,0,0,0,0,0,0,0,0,0,0,0,0,0,0,0,0,0,0,0,0,0,0,0,0,0,0,0,0,0,0,0,0,0,0,0,0,0,0,0,0,0,0,0,0,0,0,0,0,0,0,0,0,0,0,0,0,0,0,0,0,0,0,0,0,0,0,0,0,0,0,0,0,0,0,0,0,0,0,0,0,0,0,0,0,0,0,0,0,0,0,0,0,0,0,0,0,0,0,0,0,0,0,0,0,0,0,0,0,0,0,0,0,0,0,0,0,0,0,0,0,0,0,0,0,0,0,0,0,0,0,0,0,0,0,0,0,0,0,0,0,0,0,0,0,0,0,0,0,0,0,0,0,0,0,0,0,0,0,0,0,0,0,0,0,0,0,0,0,0,0,0,0,0,0,0,0,0,0,0,0,0,0,0,0,0,0,0,0,0,0,0,0,0,0,0,0,0,0,0,0,0,0,0,0,0,0,0,0,0,0,0,0,0,0,0,0,0,0,0,0,0,0,0,0,0,0,0,0,0,0,0,0,0,0,0,0,0,0,0,0,0,0,0,0,0,0,0,0,0,0,0,0,0,0,0,0,0,0,0,0,0,0,0,0,0,0,0,0,0,0,0,0,0,0,0,0,0,0,0,0,0,0,0,0,0,0,0,0,0,0,0,0,0,0,0,0,0,0,0,0,0,0,0,0,0,0,

% 0,0,0,0,0,0,0,0,0,0,0,0,0,0,0,0,0,0,0,0,0,0,0,0,0,0,0,0,0,0,0,0,0,0,0,0,0,0,0,0,0,0,0,0,0,0,0,0,0,0,0,0,0,0,0,0,0,0,0,0,0,0,0,0,0,0,0,0,0,0,0,0,0,0,0,0,0,0,0,0,0,0,0,0,0,0,0,0,0,0,0,0,0,0,0,0,0,0,0,0,0,0,0,0,0,0,0,0,0,0,0,0,0,0,0,0,0,0,0,0,0,0,0,0,0,0,0,0,0,0,0,0,0,0,0,0,0,0,0,0,0,0,0,0,0,0,0,0,0,0,0,0,0,0,0,0,0,0,0,0,0,0,0,0,0,0,0,0,0,0,0,0,0,0,0,0,0,0,0,0,0,0,0,0,0,0,0,0,0,0,0,0,0,0,0,0,0,0,0,0,0,0,0,0,0,0,0,0,0,0,0,0,0,0,0,0,0,0,0,0,0,0,0,0,0,0,0,0,0,0,0,0,0,0,0,0,0,0,0,0,0,0,0,0,0,0,0,0,0,0,0,0,0,0,0,0,0,0,0,0,0,0,0,0,0,0,0,0,0,0,0,0,0,0,0,0,0,0,0,0,0,0,0,0,0,0,0,0,0,0,0,0,0,0,0,0,0,0,0,0,0,0,0,0,0,0,0,0,0,0,0,0,0,0,0,0,0,0,0,0,0,0,0,0,0,0,0,0,0,0,0,0,0,0,0,0,
% 0,0,0,0,0,0,0,0,0,0,0,0,0,0,0,0,0,0,0,0,0,0,0,0,0,0,0,0,0,0,0,0,0,0,0,0,0,0,0,0,0,0,0,0,0,0,0,0,0,0,0,0,0,0,0,0,0,0,0,0,0,0,0,0,0,0,0,0,0,0,0,0,0,0,0,0,0,0,0,0,0,0,0,0,0,0,0,0,0,0,0,0,0,0,0,0,0,0,0,0,0,0,0,0,0,0,0,0,0,0,0,0,0,0,0,0,0,0,0,0,0,0,0,0,0,0,0,0,0,0,0,0,0,0,0,0,0,0,0,0,0,0,0,0,0,0,0,0,0,0,0,0,0,0,0,0,0,0,0,0,0,0,0,0,0,0,0,0,0,0,0,0,0,0,0,0,0,0,0,0,0,0,0,0,0,0,0,0,0,0,0,0,0,0,0,0,0,0,0,0,0,0,0,0,0,0,0,0,0,0,0,0,0,0,0,0,0,0,0,0,0,0,0,0,0,0,0,0,0,0,0,0,0,0,0,0,0,0,0,0,0,0,0,0,0,0,0,0,0,0,0,0,0,0,0,0,0,0,0,0,0,0,0,0,0,0,0,0,0,0,0,0,0,0,0,0,0,0,0,0,0,0,0,0,0,0,0,0,0,0,0,0,0,0,0,0,0,0,0,0,0,0,0,0,0,0,0,0,0,0,0,0,0,0,0,0,0,0,0,0,0,0,0,0,0,0,0,0,0,0,0,0,0,0,0,0,

% 0,0,0,0,0,0,0,0,0,0,0,0,0,0,0,0,0,0,0,0,0,0,0,0,0,0,0,0,0,0,0,0,0,0,0,0,0,0,0,0,0,0,0,0,0,0,0,0,0,0,0,0,0,0,0,0,0,0,0,0,0,0,0,0,0,0,0,0,0,0,0,0,0,0,0,0,0,0,0,0,0,0,0,0,0,0,0,0,0,0,0,0,0,0,0,0,0,0,0,0,0,0,0,0,0,0,0,0,0,0,0,0,0,0,0,0,0,0,0,0,0,0,0,0,0,0,0,0,0,0,0,0,0,0,0,0,0,0,0,0,0,0,0,0,0,0,0,0,0,0,0,0,0,0,0,0,0,0,0,0,0,0,0,0,0,0,0,0,0,0,0,0,0,0,0,0,0,0,0,0,0,0,0,0,0,0,0,0,0,0,0,0,0,0,0,0,0,0,0,0,0,0,0,0,0,0,0,0,0,0,0,0,0,0,0,0,0,0,0,0,0,0,0,0,0,0,0,0,0,0,0,0,0,0,0,0,0,0,0,0,0,0,0,0,0,0,0,0,0,0,0,0,0,0,0,0,0,0,0,0,0,0,0,0,0,0,0,0,0,0,0,0,0,0,0,0,0,0,0,0,0,0,0,0,0,0,0,0,0,0,0,0,0,0,0,0,0,0,0,0,0,0,0,0,0,0,0,0,0,0,0,0,0,0,0,0,0,0,0,0,0,0,0,0,0,0,0,0,0,0,0,0,0,0,0,0,

1,1,1,1,1,1,1,1,1,1,1,1,1,1,1,1,0,0,0,1,0,0,1,0,0,0,0,0,0,0,1,1,0,0,1,0,1,0,1,1,1,1,1,0,0,1,0,1,1,1,1,1,1,1,1,1,1,0,1,0,1,0,1,0,1,1,0,0,0,0,0,0,1,0,0,0,1,0,1,1,0,0,0,1,0,0,0,0,1,1,0,0,1,0,1,1,1,1,1,1,1,1,1,1,1,1,1,1,0,1,0,1,1,1,1,1,1,0,0,1,1,1,0,0,0,1,1,1,1,0,1,0,1,0,0,0,1,1,1,1,1,0,0,1,1,1,1,1,1,1,1,1,1,1,1,1,1,1,0,1,0,0,0,1,0,1,0,0,0,0,0,0,1,1,0,0,0,1,0,0,0,0,0,0,0,0,0,0,1,1,1,1,1,1,1,1,1,1,1,1,1,1,1,1,1,1,1,1,1,1,0,1,0,0,1,0,1,0,0,0,0,1,1,0,0,0,1,0,1,0,0,0,0,0,0,1,1,1,1,1,1,1,1,1,1,1,1,1,1,1,1,1,1,1,1,1,1,0,0,1,0,1,0,1,0,1,0,1,0,0,1,0,0,0,0,1,1,0,1,1,1,1,1,1,1,1,1,1,1,1,1,1,1,1,1,1,1,1,1,1,1,1,1,0,1,0,0,1,1,1,1,1,0,1,1,1,0,0,1,1,1,1,0,0,0,0,0,0,0,0,1,0,0,1,1,1,1,1,1,1,1,1,1,1,1,1,1,1,1,1,1,1,1,1,1,1,1,1,1,1,1,1,1,1,1,1,1,1,1,1,2,2,2,1,2,3,2,3,3,3,3,3,3,2,1,1,1,1,1,1,1,1,1,1,1,1,1,1,1,1,1,1,1,1,1,1,1,1,1,1,1,1,1,1,1,1,1,1,1,1,1,2,2,2,2,2,3,3,4,3,3,2,1,1,1,1,1,1,1,1,1,1,1,1,1,1,1,1,1,1,1,1,1,1,1,1,1,1,1,1,1,1,1,1,1,1,1,1,1,2,2,2,3,2,3,3,3,3,3,3,2,1,1,1,1,1,1,1,1,1,1,1,1,1,1,1,1,1,1,1,1,1,1,1,1,1,1,1,1,1,1,1,1,1,1,1,2,1,2,2,2,3,3,2,3,2,3,2,1,1,1,1,1,1,1,1,1,1,1,1,1,1,1,1,1,1,1,1,1,1,1,1,1,1,1,1,1,1,1,1,1,2,1,1,1,1,2,1,1,1,1,2,1,2,2,1,1,1,1,1,1,1,1,1,1,1,1,1,1,1,1,1,1,1,1,1,1,1,1,1,2,1,2,1,1,1,1,1,1,1,1,1,1,1,1,1,2,1,1,1,1,1,1,1,1,1,1,1,1,1,1,1,1,1,1,1,1,1,1,1,1,1,1,1,1,1,1,1,1,1,1,1,1,1,1,1,1,1,1,1,1,1,1,1,2,2,1,2,1,1,1,2,3,3,4,4,4,4,4,4,4,4,3,4,2,2,2,4,2,1,2,2,2,1,1,2,2,2,1,2,3,3,2,2,5,3,3,4,6,4,5,5,7,10,9,8,8,8,8,6,5,3,4,4,4,4,4,4,4,3,4,3,2,1,3,1,2,3,2,4,3,2,1,3,2,1,3,4,3,2,4,3,3,4,3,3,3,6,4,5,8,7,8,7,6,7,7,6,6,4,4,4,4,4,4,4,3,3,4,3,2,2,2,3,2,3,3,2,4,4,2,2,2,2,3,3,3,2,2,3,3,4,4,3,5,4,4,5,7,7,7,8,8,9,5,6,4,4,3,3,4,4,4,4,4,4,4,3,3,3,2,1,3,2,4,3,2,2,1,3,3,2,3,2,2,1,2,3,2,3,3,4,5,6,5,4,4,7,7,6,6,6,7,5,5,3,4,4,4,4,4,4,3,3,4,2,4,4,4,3,3,2,2,3,2,3,2,3,2,2,4,3,2,1,2,3,1,2,2,4,3,5,4,2,4,4,3,4,5,5,4,3,3,4,4,4,4,4,4,4,4,4,4,3,4,3,4,1,1,2,2,1,3,2,1,4,4,3,3,3,2,2,2,3,3,3,3,1,3,3,3,4,4,4,3,2,4,3,3,3,4,4,4,3,4,4,4,4,4,4,3,4,3,4,1,3,2,3,3,2,1,3,3,3,3,3,2,2,3,2,1,2,1,4,2,4,4,3,3,5,5,5,5,4,5,6,3,4,1,1,1,1,1,1,1,1,0,0,0,1,0,0,0,0,0,1,1,1,1,1,1,1,1,1,1,1,2,2,2,2,2,2,2,3,4,3,4,4,4,4,4,3,2,2,1,1,1,1,0,0,1,1,1,1,1,1,1,0,1,0,1,1,1,1,1,2,1,1,1,1,1,1,2,2,2,2,2,2,3,2,3,3,3,3,3,4,4,4,3,2,2,1,1,1,1,1,0,1,1,1,1,1,1,0,1,0,0,0,1,0,1,1,0,1,1,1,1,1,1,1,1,1,2,3,2,2,2,2,2,2,3,3,3,3,4,3,2,2,2,1,1,1,1,1,0,1,1,1,1,1,1,1,1,1,0,0,1,0,1,0,1,1,1,1,1,1,1,1,1,2,2,2,2,2,2,2,1,2,2,3,3,3,3,3,3,2,2,1,1,0,0,1,0,1,1,1,1,1,1,1,0,0,0,0,0,1,0,1,1,1,1,1,0,1,1,1,1,1,1,1,1,1,1,1,1,2,2,1,1,1,1,1,1,1,2,1,0,0,1,1,1,1,1,1,1,0,1,1,1,1,0,1,0,1,0,1,1,1,0,1,0,1,1,1,1,1,1,1,1,1,1,1,1,1,1,1,1,1,1,1,0,0,1,0,1,0,1,1,1,1,1,1,1,1,1,1,1,1,0,0,1,0,0,0,1,0,1,0,1,1,1,0,1,0,1,1,1,1,1,1,1,1,1,1,1,1,1,1,1,1,1,1,0,0,9,6,4,2,2,1,0,1,0,1,1,1,2,2,2,4,3,5,6,7,8,8,10,9,9,10,10,11,9,11,12,11,14,13,14,17,20,19,20,23,28,28,34,34,38,33,27,20,16,10,7,4,2,2,0,1,1,1,1,1,2,2,3,4,4,6,9,7,8,8,10,10,11,11,11,10,10,11,11,13,14,15,14,17,19,18,22,24,28,28,34,34,34,32,29,23,16,11,7,3,2,2,1,1,1,1,1,1,2,3,3,4,4,6,8,7,8,9,9,10,10,10,10,9,12,11,12,13,13,13,15,16,17,18,20,22,24,29,30,34,32,33,28,22,15,11,7,4,2,1,0,1,0,1,1,1,2,2,2,4,4,6,7,7,9,9,12,10,11,10,11,12,12,12,13,13,14,13,14,15,17,17,18,22,24,25,28,29,32,28,23,19,15,9,5,4,2,1,1,1,1,1,1,1,1,2,3,4,4,5,7,7,9,7,9,10,10,10,9,9,8,9,9,11,10,12,13,12,15,14,15,15,19,18,21,20,21,19,18,14,9,6,4,3,2,1,1,1,0,1,0,1,1,1,1,2,3,4,5,6,7,6,8,9,9,9,8,9,9,9,10,10,10,10,12,11,13,13,13,13,14,15,15,16,16,13,11,8,8,6,4,2,2,1,1,0,0,1,0,0,1,1,1,2,2,3,5,5,6,7,7,8,9,7,9,8,9,9,10,9,10,11,12,12,13,14,15,16,16,17,17,18,18,14,15,12,16,12,8,7,3,1,3,2,3,2,3,3,6,8,9,11,13,13,20,23,23,25,27,27,29,27,29,31,29,29,28,34,38,36,41,46,45,50,53,54,63,62,65,68,69,55,52,36,27,18,11,7,4,4,2,2,3,2,5,5,8,9,12,12,15,15,23,24,25,26,29,28,30,30,28,30,31,29,32,32,36,35,40,42,48,46,57,53,60,63,65,65,68,61,52,39,26,17,13,6,4,3,1,2,2,1,3,4,8,7,12,12,14,14,23,23,27,25,28,28,29,29,29,30,32,29,32,35,35,34,38,43,44,48,52,53,53,59,60,67,60,56,46,33,25,14,12,6,5,1,2,1,2,3,2,5,6,8,8,12,14,13,23,25,25,27,30,29,29,27,30,28,29,28,29,33,33,32,38,40,44,43,45,49,51,49,54,53,56,49,43,33,21,13,11,6,3,3,2,0,2,1,3,4,7,7,9,9,13,15,20,21,22,23,27,22,24,24,26,27,25,20,26,27,29,26,33,34,35,34,37,33,35,34,37,38,37,33,26,20,13,10,8,7,5,2,3,0,3,1,2,4,3,4,8,8,8,12,17,18,18,20,24,22,23,22,23,21,24,22,24,22,25,25,29,26,28,29,31,28,30,27,30,28,28,26,16,13,10,9,7,7,5,2,2,2,1,1,1,2,2,3,6,8,10,9,17,14,19,21,23,19,22,22,22,22,23,19,23,21,26,28,29,33,35,32,35,35,39,34,39,36,33,31,26,17

% 1,1,1,1,1,1,1,1,1,1,1,1,1,1,1,1,1,1,1,1,1,1,1,1,1,1,1,1,1,1,1,1,1,1,1,1,1,1,1,1,1,1,1,1,1,1,1,1,2,2,2,2,2,2,2,2,2,2,2,2,2,2,2,2,2,2,2,2,2,2,2,2,2,2,2,2,2,2,2,2,2,2,2,2,2,3,2,3,4,4,4,2,2,2,2,2,1,1,1,1,1,1,1,1,1,1,1,1,1,1,1,1,1,1,1,1,1,1,1,1,1,1,1,1,1,1,1,1,1,1,1,1,1,1,1,1,2,2,2,1,1,1,1,1,1,1,1,1,1,1,1,1,1,1,1,1,1,1,1,1,1,1,1,1,1,1,1,1,1,1,1,1,1,1,1,1,1,1,1,1,1,1,1,1,2,3,2,1,1,1,1,1,1,1,1,1,1,1,1,1,1,1,1,1,1,1,1,1,1,1,1,1,1,1,1,1,1,1,1,1,1,1,1,1,1,1,1,1,1,1,1,1,1,1,1,1,1,1,1,1,1,1,1,1,1,1,1,1,1,1,1,1,1,1,1,1,1,1,1,1,1,1,1,1,1,1,1,1,1,1,1,1,1,1,1,2,1,1,1,1,1,1,1,1,1,1,1,1,1,1,1,1,1,1,1,1,1,1,1,1,1,1,1,1,1,1,1,1,1,1,1,1,1,1,1,1,1,1,1,1,1,1,1,1,1,1,1,1,1,1,1,1,1,1,1,1,1,2,1,1,1,1,1,1,1,1,1,1,1,1,1,1,1,1,1,1,1,1,1,1,2,1,2,1,1,1,2,2,1,2,2,2,2,3,2,2,2,2,2,2,2,3,2,2,4,2,2,2,2,2,2,2,2,2,2,2,2,2,2,3,3,3,3,2,2,3,4,3,4,4,4,4,4,4,4,2,4,4,4,4,4,6,4,6,6,6,8,8,8,8,8,6,3,2,2,2,1,1,1,1,1,1,1,1,1,1,1,1,1,1,1,1,2,2,2,1,2,2,2,2,2,2,2,2,2,2,2,2,3,3,3,3,3,2,4,3,5,5,5,3,3,2,2,2,1,1,1,1,1,1,1,1,1,1,1,1,1,1,1,2,1,2,2,1,2,2,2,2,2,2,3,2,2,2,2,2,3,3,3,3,3,3,5,4,4,4,5,4,3,2,1,2,2,1,1,1,1,1,1,1,1,1,1,1,1,2,2,2,1,2,2,1,1,2,2,2,2,2,2,2,2,2,2,2,2,2,3,3,3,3,3,4,4,3,5,4,3,2,2,1,1,1,1,1,1,1,1,1,1,1,1,1,1,1,1,2,2,1,1,1,1,2,2,1,1,2,2,2,2,1,2,2,2,3,3,2,2,2,2,2,3,3,4,3,2,2,1,1,1,1,1,1,1,1,1,1,1,1,1,1,1,1,1,1,1,2,1,2,2,2,2,2,1,1,2,1,2,1,2,2,2,2,2,2,2,3,2,3,2,2,3,2,3,3,2,2,2,2,2,3,2,2,2,3,3,2,2,2,3,4,2,3,4,3,3,2,4,3,4,4,4,3,4,4,4,3,4,6,5,5,5,5,7,5,5,6,5,6,5,5,8,6,4,4,4,4,4,4,4,4,4,6,4,4,4,4,8,8,6,8,6,6,8,6,8,10,8,8,10,10,8,10,12,10,10,10,14,12,12,14,16,18,20,18,22,20,16,12,6,4,3,3,2,3,2,2,2,2,2,2,2,2,2,2,3,3,3,3,3,4,4,4,4,5,4,4,5,4,4,3,5,4,4,4,6,7,8,8,9,8,9,9,10,9,7,7,7,4,3,3,2,2,2,3,3,2,2,2,3,3,3,3,4,4,3,3,3,4,3,4,4,4,4,5,4,5,4,5,5,4,5,5,6,5,7,7,9,9,9,11,10,10,8,8,6,5,4,2,2,2,2,2,2,2,2,2,2,2,3,3,4,4,3,3,4,4,4,4,4,5,3,3,4,4,4,4,4,4,4,4,6,6,6,8,8,10,9,10,10,9,8,7,5,4,4,3,2,2,2,2,2,2,2,2,2,2,3,3,3,3,4,3,4,3,4,4,4,3,3,4,4,3,3,4,4,4,6,3,5,6,5,5,5,4,6,5,7,6,5,4,4,4,3,3,2,2,2,2,2,2,2,2,3,3,2,2,3,3,3,4,4,4,4,3,4,3,5,4,4,3,4,3,3,4,5,5,4,4,4,5,4,6,6,6,5,5,5,4,1,1,1,1,1,1,1,1,1,1,1,1,1,1,1,1,1,1,1,2,2,2,2,2,1,1,2,2,2,3,3,3,2,2,3,3,3,3,2,2,3,2,1,2,2,1,2,1,2,2,2,2,2,2,2,2,2,2,2,2,2,2,2,2,2,4,4,4,4,4,4,4,4,4,4,4,8,6,6,8,8,6,6,8,8,8,8,10,12,12,10,8,8,6,4,4,1,1,1,1,1,1,1,1,1,1,1,1,1,1,1,1,1,2,2,3,2,2,2,2,2,2,3,3,3,2,3,4,4,3,4,4,4,5,5,5,6,5,4,4,4,3,2,2,1,1,1,1,1,1,1,1,1,1,1,1,1,1,1,1,1,1,1,2,2,2,2,2,2,2,3,2,3,4,3,3,3,3,4,4,4,4,4,5,6,5,5,4,4,3,2,2,2,1,1,1,1,1,1,1,1,1,1,1,1,1,1,1,1,2,2,2,3,2,3,2,2,2,2,3,3,3,3,3,3,4,3,3,4,4,4,5,6,6,5,4,3,3,2,2,1,1,1,1,1,1,1,1,1,1,1,1,1,1,1,1,1,2,2,2,2,2,2,1,2,2,2,3,3,4,3,3,2,2,2,3,3,3,3,3,3,3,3,3,3,2,1,1,1,1,1,1,1,1,1,1,1,1,1,1,1,1,1,1,1,2,2,2,2,2,2,2,2,2,2,2,2,3,3,2,3,2,2,2,2,2,2,2,2,2,2,2,1,2,1,1,12,9,6,3,4,3,2,1,1,2,1,2,2,2,3,4,4,5,6,7,8,8,10,9,12,11,11,10,12,10,12,11,12,14,14,15,15,16,19,18,19,18,20,21,23,19,18,15,26,16,12,8,6,6,3,2,3,2,4,4,6,6,8,10,10,10,16,16,18,20,24,22,24,24,26,24,22,26,26,26,32,30,32,34,42,44,50,50,55,62,64,70,80,73,62,48,19,15,10,6,4,3,2,2,1,1,2,2,3,4,4,5,4,7,9,10,11,11,13,13,14,13,13,11,13,12,13,15,15,17,16,18,20,20,25,25,30,31,35,35,38,36,34,27,21,15,10,5,4,3,2,2,2,2,2,2,3,4,4,6,5,7,10,9,11,11,13,13,14,13,13,12,13,12,13,16,16,16,17,17,21,22,24,25,29,32,36,37,41,40,35,28,21,15,10,6,4,4,2,2,2,2,2,2,3,3,4,5,5,8,10,9,13,13,15,13,13,13,13,12,14,14,14,14,16,16,15,16,19,19,22,24,28,27,33,34,38,33,30,25,20,13,9,6,4,3,2,2,2,2,2,2,3,3,4,5,5,6,8,9,9,10,12,13,13,13,12,11,11,10,12,14,12,15,16,16,18,18,18,19,23,20,25,25,26,27,23,20,14,11,7,5,3,3,2,2,2,2,1,2,3,2,3,4,4,6,8,7,8,8,10,10,11,11,12,11,11,10,11,11,13,13,14,13,16,16,17,17,16,16,19,20,20,20,15,13,17,16,10,9,8,5,6,4,6,3,5,4,5,6,9,10,13,14,19,21,25,24,28,28,29,30,29,29,32,25,26,32,29,34,39,39,43,40,42,45,44,46,46,45,44,41,35,26,48,32,24,14,14,10,10,12,10,8,12,16,12,18,28,28,30,34,52,50,60,56,70,66,68,71,72,74,70,66,70,78,82,76,92,102,98,112,121,126,137,136,144,145,154,134,116,86,32,23,16,10,7,6,5,5,5,5,8,6,10,11,14,14,16,18,27,28,29,32,34,34,37,36,35,34,36,34,34,39,41,42,47,49,55,54,64,64,69,70,75,77,78,75,64,47,36,25,17,10,8,6,4,4,5,6,7,8,9,12,14,16,17,21,26,30,31,33,35,33,36,36,39,36,37,34,37,39,43,40,47,51,54,53,61,63,66,67,71,78,79,73,65,44,36,22,18,10,7,5,4,5,5,5,6,7,10,12,13,15,17,20,26,30,32,34,36,34,35,34,36,32,37,33,36,38,41,38,45,42,50,49,56,58,60,59,69,65,67,64,53,44,32,20,17,11,7,6,4,3,5,5,6,7,9,11,12,14,15,17,26,27,29,32,31,29,35,32,34,35,33,30,32,34,37,37,40,43,43,43,47,44,43,46,46,49,49,45,38,30,23,15,11,11,7,6,4,5,5,4,5,6,8,7,11,12,13,17,21,24,25,26,32,30,33,30,31,27,29,25,29,31,32,34,39,35,42,39,40,39,38,35,40,36,39,37,29,25






% 0,0,0,0,0,0,0,0,0,0,0,0,0,0,0,0,0,0,0,0,0,0,0,0,0,0,0,0,0,0,0,0,0,0,0,0,0,0,0,0,0,0,0,0,0,0,0,0,0,0,0,0,0,0,0,0,0,0,0,0,0,0,0,0,0,0,0,0,0,0,0,0,0,0,0,0,0,0,0,0,0,0,0,0,0,0,0,0,0,0,0,0,0,0,0,0,0,0,0,0,0,0,0,0,0,0,0,0,0,0,0,0,0,0,0,0,0,0,0,0,0,0,0,0,0,0,0,0,0,0,0,0,0,0,0,0,0,0,0,0,0,0,0,0,0,0,0,0,0,0,0,0,0,0,0,0,0,0,0,0,0,0,0,0,0,0,0,0,0,0,0,0,0,0,0,0,0,0,0,0,0,0,0,0,0,0,0,0,0,0,0,0,0,0,0,0,0,0,0,0,0,0,0,0,0,0,0,0,0,0,0,0,0,0,0,0,0,0,0,0,0,0,0,0,0,0,0,0,0,0,0,0,0,0,0,0,0,0,0,0,0,0,0,0,0,0,0,0,0,0,0,0,0,0,0,0,0,0,0,0,0,0,0,0,0,0,0,0,0,0,0,0,0,0,0,0,0,0,0,0,0,0,0,0,0,0,0,0,0,0,0,0,0,0,0,0,0,0,0,0,0,0,0,0,0,0,0,0,0,0,0,0,0,0,0,0,0,0,0,0,0,0,0,0,0,0,0,0,0,0,0,0,0,0,0,0
]);   
 
 
 
 
 
% blockName =  ["p_1", "p_2", "p_3", "p_4", "l_1", "l_2", "l_3", "bc_2", "bc_3", "bc_4", "i_2", "i_3", "i_4", "off"];  
% shiftName =  ["a3731000000573uAAA","a3731000000573zAAA","a3731000000573kAAA","a373C000000GvYJQA0","off"];



timeLabels =  ["2017-12-04 00:00:00","2017-12-04 00:30:00","2017-12-04 01:00:00","2017-12-04 01:30:00","2017-12-04 02:00:00","2017-12-04 02:30:00","2017-12-04 03:00:00","2017-12-04 03:30:00","2017-12-04 04:00:00","2017-12-04 04:30:00","2017-12-04 05:00:00","2017-12-04 05:30:00","2017-12-04 06:00:00","2017-12-04 06:30:00","2017-12-04 07:00:00","2017-12-04 07:30:00","2017-12-04 08:00:00","2017-12-04 08:30:00","2017-12-04 09:00:00","2017-12-04 09:30:00","2017-12-04 10:00:00","2017-12-04 10:30:00","2017-12-04 11:00:00","2017-12-04 11:30:00","2017-12-04 12:00:00","2017-12-04 12:30:00","2017-12-04 13:00:00","2017-12-04 13:30:00","2017-12-04 14:00:00","2017-12-04 14:30:00","2017-12-04 15:00:00","2017-12-04 15:30:00","2017-12-04 16:00:00","2017-12-04 16:30:00","2017-12-04 17:00:00","2017-12-04 17:30:00","2017-12-04 18:00:00","2017-12-04 18:30:00","2017-12-04 19:00:00","2017-12-04 19:30:00","2017-12-04 20:00:00","2017-12-04 20:30:00","2017-12-04 21:00:00","2017-12-04 21:30:00","2017-12-04 22:00:00","2017-12-04 22:30:00","2017-12-04 23:00:00","2017-12-04 23:30:00","2017-12-05 00:00:00","2017-12-05 00:30:00","2017-12-05 01:00:00","2017-12-05 01:30:00","2017-12-05 02:00:00","2017-12-05 02:30:00","2017-12-05 03:00:00","2017-12-05 03:30:00","2017-12-05 04:00:00","2017-12-05 04:30:00","2017-12-05 05:00:00","2017-12-05 05:30:00","2017-12-05 06:00:00","2017-12-05 06:30:00","2017-12-05 07:00:00","2017-12-05 07:30:00","2017-12-05 08:00:00","2017-12-05 08:30:00","2017-12-05 09:00:00","2017-12-05 09:30:00","2017-12-05 10:00:00","2017-12-05 10:30:00","2017-12-05 11:00:00","2017-12-05 11:30:00","2017-12-05 12:00:00","2017-12-05 12:30:00","2017-12-05 13:00:00","2017-12-05 13:30:00","2017-12-05 14:00:00","2017-12-05 14:30:00","2017-12-05 15:00:00","2017-12-05 15:30:00","2017-12-05 16:00:00","2017-12-05 16:30:00","2017-12-05 17:00:00","2017-12-05 17:30:00","2017-12-05 18:00:00","2017-12-05 18:30:00","2017-12-05 19:00:00","2017-12-05 19:30:00","2017-12-05 20:00:00","2017-12-05 20:30:00","2017-12-05 21:00:00","2017-12-05 21:30:00","2017-12-05 22:00:00","2017-12-05 22:30:00","2017-12-05 23:00:00","2017-12-05 23:30:00","2017-12-06 00:00:00","2017-12-06 00:30:00","2017-12-06 01:00:00","2017-12-06 01:30:00","2017-12-06 02:00:00","2017-12-06 02:30:00","2017-12-06 03:00:00","2017-12-06 03:30:00","2017-12-06 04:00:00","2017-12-06 04:30:00","2017-12-06 05:00:00","2017-12-06 05:30:00","2017-12-06 06:00:00","2017-12-06 06:30:00","2017-12-06 07:00:00","2017-12-06 07:30:00","2017-12-06 08:00:00","2017-12-06 08:30:00","2017-12-06 09:00:00","2017-12-06 09:30:00","2017-12-06 10:00:00","2017-12-06 10:30:00","2017-12-06 11:00:00","2017-12-06 11:30:00","2017-12-06 12:00:00","2017-12-06 12:30:00","2017-12-06 13:00:00","2017-12-06 13:30:00","2017-12-06 14:00:00","2017-12-06 14:30:00","2017-12-06 15:00:00","2017-12-06 15:30:00","2017-12-06 16:00:00","2017-12-06 16:30:00","2017-12-06 17:00:00","2017-12-06 17:30:00","2017-12-06 18:00:00","2017-12-06 18:30:00","2017-12-06 19:00:00","2017-12-06 19:30:00","2017-12-06 20:00:00","2017-12-06 20:30:00","2017-12-06 21:00:00","2017-12-06 21:30:00","2017-12-06 22:00:00","2017-12-06 22:30:00","2017-12-06 23:00:00","2017-12-06 23:30:00","2017-12-07 00:00:00","2017-12-07 00:30:00","2017-12-07 01:00:00","2017-12-07 01:30:00","2017-12-07 02:00:00","2017-12-07 02:30:00","2017-12-07 03:00:00","2017-12-07 03:30:00","2017-12-07 04:00:00","2017-12-07 04:30:00","2017-12-07 05:00:00","2017-12-07 05:30:00","2017-12-07 06:00:00","2017-12-07 06:30:00","2017-12-07 07:00:00","2017-12-07 07:30:00","2017-12-07 08:00:00","2017-12-07 08:30:00","2017-12-07 09:00:00","2017-12-07 09:30:00","2017-12-07 10:00:00","2017-12-07 10:30:00","2017-12-07 11:00:00","2017-12-07 11:30:00","2017-12-07 12:00:00","2017-12-07 12:30:00","2017-12-07 13:00:00","2017-12-07 13:30:00","2017-12-07 14:00:00","2017-12-07 14:30:00","2017-12-07 15:00:00","2017-12-07 15:30:00","2017-12-07 16:00:00","2017-12-07 16:30:00","2017-12-07 17:00:00","2017-12-07 17:30:00","2017-12-07 18:00:00","2017-12-07 18:30:00","2017-12-07 19:00:00","2017-12-07 19:30:00","2017-12-07 20:00:00","2017-12-07 20:30:00","2017-12-07 21:00:00","2017-12-07 21:30:00","2017-12-07 22:00:00","2017-12-07 22:30:00","2017-12-07 23:00:00","2017-12-07 23:30:00","2017-12-08 00:00:00","2017-12-08 00:30:00","2017-12-08 01:00:00","2017-12-08 01:30:00","2017-12-08 02:00:00","2017-12-08 02:30:00","2017-12-08 03:00:00","2017-12-08 03:30:00","2017-12-08 04:00:00","2017-12-08 04:30:00","2017-12-08 05:00:00","2017-12-08 05:30:00","2017-12-08 06:00:00","2017-12-08 06:30:00","2017-12-08 07:00:00","2017-12-08 07:30:00","2017-12-08 08:00:00","2017-12-08 08:30:00","2017-12-08 09:00:00","2017-12-08 09:30:00","2017-12-08 10:00:00","2017-12-08 10:30:00","2017-12-08 11:00:00","2017-12-08 11:30:00","2017-12-08 12:00:00","2017-12-08 12:30:00","2017-12-08 13:00:00","2017-12-08 13:30:00","2017-12-08 14:00:00","2017-12-08 14:30:00","2017-12-08 15:00:00","2017-12-08 15:30:00","2017-12-08 16:00:00","2017-12-08 16:30:00","2017-12-08 17:00:00","2017-12-08 17:30:00","2017-12-08 18:00:00","2017-12-08 18:30:00","2017-12-08 19:00:00","2017-12-08 19:30:00","2017-12-08 20:00:00","2017-12-08 20:30:00","2017-12-08 21:00:00","2017-12-08 21:30:00","2017-12-08 22:00:00","2017-12-08 22:30:00","2017-12-08 23:00:00","2017-12-08 23:30:00","2017-12-09 00:00:00","2017-12-09 00:30:00","2017-12-09 01:00:00","2017-12-09 01:30:00","2017-12-09 02:00:00","2017-12-09 02:30:00","2017-12-09 03:00:00","2017-12-09 03:30:00","2017-12-09 04:00:00","2017-12-09 04:30:00","2017-12-09 05:00:00","2017-12-09 05:30:00","2017-12-09 06:00:00","2017-12-09 06:30:00","2017-12-09 07:00:00","2017-12-09 07:30:00","2017-12-09 08:00:00","2017-12-09 08:30:00","2017-12-09 09:00:00","2017-12-09 09:30:00","2017-12-09 10:00:00","2017-12-09 10:30:00","2017-12-09 11:00:00","2017-12-09 11:30:00","2017-12-09 12:00:00","2017-12-09 12:30:00","2017-12-09 13:00:00","2017-12-09 13:30:00","2017-12-09 14:00:00","2017-12-09 14:30:00","2017-12-09 15:00:00","2017-12-09 15:30:00","2017-12-09 16:00:00","2017-12-09 16:30:00","2017-12-09 17:00:00","2017-12-09 17:30:00","2017-12-09 18:00:00","2017-12-09 18:30:00","2017-12-09 19:00:00","2017-12-09 19:30:00","2017-12-09 20:00:00","2017-12-09 20:30:00","2017-12-09 21:00:00","2017-12-09 21:30:00","2017-12-09 22:00:00","2017-12-09 22:30:00","2017-12-09 23:00:00","2017-12-09 23:30:00","2017-12-10 00:00:00","2017-12-10 00:30:00","2017-12-10 01:00:00","2017-12-10 01:30:00","2017-12-10 02:00:00","2017-12-10 02:30:00","2017-12-10 03:00:00","2017-12-10 03:30:00","2017-12-10 04:00:00","2017-12-10 04:30:00","2017-12-10 05:00:00","2017-12-10 05:30:00","2017-12-10 06:00:00","2017-12-10 06:30:00","2017-12-10 07:00:00","2017-12-10 07:30:00","2017-12-10 08:00:00","2017-12-10 08:30:00","2017-12-10 09:00:00","2017-12-10 09:30:00","2017-12-10 10:00:00","2017-12-10 10:30:00","2017-12-10 11:00:00","2017-12-10 11:30:00","2017-12-10 12:00:00","2017-12-10 12:30:00","2017-12-10 13:00:00","2017-12-10 13:30:00","2017-12-10 14:00:00","2017-12-10 14:30:00","2017-12-10 15:00:00","2017-12-10 15:30:00","2017-12-10 16:00:00","2017-12-10 16:30:00","2017-12-10 17:00:00","2017-12-10 17:30:00","2017-12-10 18:00:00","2017-12-10 18:30:00","2017-12-10 19:00:00","2017-12-10 19:30:00","2017-12-10 20:00:00","2017-12-10 20:30:00","2017-12-10 21:00:00","2017-12-10 21:30:00","2017-12-10 22:00:00","2017-12-10 22:30:00","2017-12-10 23:00:00","2017-12-10 23:30:00"];